Route #1: 1 55 36 41 30 5 24 47 17 49 25 2 4 1
Route #2: 1 56 3 31 53 51 23 43 40 8 33 1
Route #3: 1 57 19 27 20 42 35 18 1
Route #4: 1 11 45 22 46 12 16 7 50 1
Route #5: 1 39 37 54 13 29 26 9 10 52 1
Route #6: 1 38 15 44 48 21 1
Route #7: 1 6 34 14 28 1
cost 1255.1666538127695
